p cnf 60 1131
-4 -14
-4 -18
-4 -38
-4 -50
-4 -66
-4 -76
-4 -88
-4 -90
-4 -108
-4 -110
-4 -112
-4 -128
-4 -132
-4 -146
-4 -150
-4 -156
-4 -170
-4 -174
-4 -188
-4 -198
-4 -202
-4 -204
-4 -212
-4 -226
-4 -228
-4 -268
-4 -270
-4 -282
-4 -284
-4 -286
-4 -314
-4 -330
-4 -338
-4 -340
-4 -372
-4 -390
-4 -392
-4 -398
-14 -20
-14 -38
-14 -66
-14 -76
-14 -88
-14 -110
-14 -116
-14 -128
-14 -132
-14 -142
-14 -148
-14 -150
-14 -156
-14 -170
-14 -174
-14 -190
-14 -202
-14 -212
-14 -226
-14 -236
-14 -264
-14 -268
-14 -270
-14 -286
-14 -308
-14 -330
-14 -350
-14 -354
-14 -364
-14 -372
-14 -390
-14 -396
-14 -398
-18 -20
-18 -38
-18 -50
-18 -76
-18 -102
-18 -108
-18 -110
-18 -112
-18 -116
-18 -132
-18 -148
-18 -156
-18 -170
-18 -174
-18 -190
-18 -202
-18 -204
-18 -212
-18 -226
-18 -228
-18 -236
-18 -268
-18 -270
-18 -282
-18 -286
-18 -288
-18 -308
-18 -314
-18 -340
-18 -350
-18 -354
-18 -364
-18 -372
-18 -390
-18 -392
-18 -398
-20 -50
-20 -66
-20 -88
-20 -112
-20 -116
-20 -128
-20 -132
-20 -142
-20 -148
-20 -150
-20 -156
-20 -170
-20 -174
-20 -176
-20 -188
-20 -196
-20 -198
-20 -202
-20 -212
-20 -226
-20 -264
-20 -282
-20 -284
-20 -286
-20 -338
-20 -340
-20 -350
-20 -364
-20 -372
-20 -386
-20 -392
-20 -396
-20 -398
-38 -64
-38 -66
-38 -90
-38 -112
-38 -116
-38 -132
-38 -142
-38 -146
-38 -148
-38 -150
-38 -176
-38 -188
-38 -190
-38 -218
-38 -226
-38 -228
-38 -236
-38 -264
-38 -268
-38 -270
-38 -282
-38 -284
-38 -286
-38 -288
-38 -308
-38 -330
-38 -338
-38 -340
-38 -348
-38 -350
-38 -364
-38 -372
-38 -390
-38 -392
-38 -398
-50 -64
-50 -66
-50 -76
-50 -88
-50 -102
-50 -108
-50 -110
-50 -116
-50 -128
-50 -142
-50 -146
-50 -148
-50 -150
-50 -156
-50 -170
-50 -176
-50 -188
-50 -196
-50 -198
-50 -202
-50 -212
-50 -226
-50 -228
-50 -236
-50 -264
-50 -270
-50 -286
-50 -288
-50 -308
-50 -338
-50 -340
-50 -348
-50 -350
-50 -354
-50 -372
-50 -384
-50 -386
-50 -390
-50 -392
-50 -396
-64 -88
-64 -102
-64 -108
-64 -110
-64 -112
-64 -116
-64 -128
-64 -132
-64 -142
-64 -146
-64 -148
-64 -156
-64 -170
-64 -176
-64 -188
-64 -190
-64 -198
-64 -204
-64 -212
-64 -236
-64 -264
-64 -270
-64 -282
-64 -286
-64 -308
-64 -314
-64 -330
-64 -338
-64 -340
-64 -348
-64 -350
-64 -364
-64 -372
-64 -384
-64 -386
-64 -390
-64 -392
-64 -398
-66 -76
-66 -102
-66 -108
-66 -112
-66 -116
-66 -150
-66 -156
-66 -170
-66 -174
-66 -176
-66 -188
-66 -190
-66 -198
-66 -202
-66 -204
-66 -212
-66 -218
-66 -226
-66 -236
-66 -268
-66 -270
-66 -284
-66 -288
-66 -340
-66 -354
-66 -364
-66 -390
-66 -392
-66 -396
-76 -90
-76 -102
-76 -108
-76 -110
-76 -112
-76 -128
-76 -132
-76 -142
-76 -148
-76 -174
-76 -176
-76 -196
-76 -212
-76 -218
-76 -226
-76 -228
-76 -270
-76 -282
-76 -284
-76 -288
-76 -308
-76 -314
-76 -338
-76 -348
-76 -350
-76 -364
-76 -372
-76 -384
-76 -386
-76 -392
-76 -396
-76 -398
-88 -90
-88 -108
-88 -110
-88 -112
-88 -132
-88 -142
-88 -146
-88 -150
-88 -156
-88 -170
-88 -174
-88 -176
-88 -188
-88 -196
-88 -202
-88 -218
-88 -226
-88 -228
-88 -236
-88 -264
-88 -268
-88 -288
-88 -308
-88 -314
-88 -330
-88 -348
-88 -364
-88 -372
-88 -384
-88 -386
-88 -390
-88 -396
-90 -102
-90 -108
-90 -128
-90 -132
-90 -142
-90 -146
-90 -148
-90 -150
-90 -156
-90 -174
-90 -188
-90 -196
-90 -198
-90 -202
-90 -204
-90 -212
-90 -218
-90 -226
-90 -228
-90 -236
-90 -264
-90 -268
-90 -282
-90 -286
-90 -308
-90 -314
-90 -338
-90 -340
-90 -348
-90 -350
-90 -354
-90 -364
-90 -372
-90 -384
-90 -390
-90 -396
-102 -108
-102 -110
-102 -112
-102 -132
-102 -142
-102 -146
-102 -148
-102 -150
-102 -156
-102 -170
-102 -176
-102 -188
-102 -190
-102 -196
-102 -198
-102 -202
-102 -204
-102 -212
-102 -218
-102 -226
-102 -228
-102 -236
-102 -268
-102 -270
-102 -286
-102 -288
-102 -308
-102 -314
-102 -330
-102 -340
-102 -348
-102 -354
-102 -384
-102 -390
-102 -392
-102 -396
-102 -398
-108 -110
-108 -132
-108 -142
-108 -146
-108 -150
-108 -156
-108 -170
-108 -174
-108 -176
-108 -188
-108 -190
-108 -196
-108 -198
-108 -202
-108 -212
-108 -218
-108 -228
-108 -236
-108 -264
-108 -268
-108 -270
-108 -286
-108 -308
-108 -330
-108 -348
-108 -350
-108 -354
-108 -384
-108 -392
-110 -112
-110 -116
-110 -146
-110 -150
-110 -156
-110 -170
-110 -174
-110 -188
-110 -190
-110 -196
-110 -198
-110 -202
-110 -204
-110 -212
-110 -218
-110 -226
-110 -236
-110 -264
-110 -282
-110 -308
-110 -314
-110 -330
-110 -340
-110 -348
-110 -354
-110 -364
-110 -372
-110 -386
-110 -390
-110 -392
-110 -398
-112 -128
-112 -132
-112 -142
-112 -148
-112 -150
-112 -156
-112 -174
-112 -176
-112 -188
-112 -190
-112 -196
-112 -198
-112 -202
-112 -204
-112 -218
-112 -226
-112 -236
-112 -268
-112 -308
-112 -330
-112 -348
-112 -350
-112 -354
-112 -372
-112 -384
-112 -386
-116 -132
-116 -142
-116 -146
-116 -150
-116 -170
-116 -174
-116 -176
-116 -188
-116 -190
-116 -196
-116 -198
-116 -202
-116 -204
-116 -212
-116 -218
-116 -226
-116 -236
-116 -264
-116 -268
-116 -270
-116 -282
-116 -288
-116 -308
-116 -314
-116 -330
-116 -338
-116 -348
-116 -350
-116 -372
-116 -384
-116 -386
-116 -392
-116 -396
-116 -398
-128 -142
-128 -146
-128 -148
-128 -170
-128 -174
-128 -176
-128 -188
-128 -196
-128 -198
-128 -202
-128 -212
-128 -218
-128 -226
-128 -228
-128 -236
-128 -264
-128 -270
-128 -284
-128 -286
-128 -308
-128 -340
-128 -348
-128 -350
-128 -354
-128 -364
-128 -372
-128 -384
-128 -386
-128 -390
-128 -398
-132 -146
-132 -148
-132 -150
-132 -156
-132 -170
-132 -174
-132 -176
-132 -188
-132 -190
-132 -196
-132 -198
-132 -204
-132 -212
-132 -218
-132 -226
-132 -236
-132 -264
-132 -268
-132 -282
-132 -284
-132 -286
-132 -288
-132 -308
-132 -348
-132 -350
-132 -354
-132 -384
-132 -386
-132 -392
-142 -146
-142 -150
-142 -170
-142 -190
-142 -196
-142 -202
-142 -204
-142 -236
-142 -268
-142 -270
-142 -282
-142 -286
-142 -288
-142 -308
-142 -314
-142 -330
-142 -338
-142 -340
-142 -348
-142 -350
-142 -354
-142 -364
-142 -372
-142 -384
-142 -390
-142 -392
-142 -396
-146 -150
-146 -156
-146 -170
-146 -176
-146 -188
-146 -190
-146 -196
-146 -202
-146 -218
-146 -226
-146 -228
-146 -270
-146 -282
-146 -286
-146 -308
-146 -314
-146 -340
-146 -350
-146 -354
-146 -372
-146 -384
-146 -390
-146 -392
-146 -396
-146 -398
-148 -150
-148 -156
-148 -170
-148 -174
-148 -176
-148 -196
-148 -204
-148 -226
-148 -228
-148 -282
-148 -284
-148 -314
-148 -330
-148 -338
-148 -350
-148 -364
-148 -384
-148 -386
-148 -392
-148 -398
-150 -156
-150 -170
-150 -174
-150 -176
-150 -196
-150 -202
-150 -204
-150 -226
-150 -236
-150 -264
-150 -270
-150 -288
-150 -308
-150 -314
-150 -330
-150 -340
-150 -350
-150 -364
-150 -386
-150 -390
-150 -392
-150 -396
-156 -170
-156 -174
-156 -176
-156 -188
-156 -198
-156 -202
-156 -204
-156 -212
-156 -236
-156 -264
-156 -282
-156 -286
-156 -288
-156 -308
-156 -314
-156 -330
-156 -338
-156 -340
-156 -348
-156 -354
-156 -364
-156 -384
-156 -386
-156 -390
-156 -392
-156 -396
-156 -398
-170 -174
-170 -188
-170 -190
-170 -198
-170 -212
-170 -218
-170 -226
-170 -268
-170 -270
-170 -288
-170 -348
-170 -350
-170 -354
-170 -364
-170 -372
-170 -384
-170 -386
-174 -188
-174 -196
-174 -218
-174 -226
-174 -228
-174 -236
-174 -264
-174 -268
-174 -282
-174 -284
-174 -288
-174 -308
-174 -314
-174 -350
-174 -354
-174 -372
-174 -384
-174 -396
-174 -398
-176 -204
-176 -212
-176 -218
-176 -236
-176 -264
-176 -282
-176 -286
-176 -314
-176 -330
-176 -338
-176 -348
-176 -364
-176 -372
-176 -390
-176 -392
-188 -190
-188 -198
-188 -202
-188 -204
-188 -212
-188 -218
-188 -226
-188 -236
-188 -270
-188 -282
-188 -286
-188 -288
-188 -308
-188 -330
-188 -338
-188 -340
-188 -348
-188 -350
-188 -354
-188 -364
-188 -372
-188 -384
-188 -386
-188 -390
-188 -396
-188 -398
-190 -196
-190 -198
-190 -202
-190 -204
-190 -218
-190 -226
-190 -228
-190 -236
-190 -264
-190 -282
-190 -284
-190 -286
-190 -288
-190 -308
-190 -314
-190 -330
-190 -340
-190 -348
-190 -350
-190 -354
-190 -364
-190 -372
-190 -386
-190 -396
-196 -198
-196 -202
-196 -204
-196 -212
-196 -226
-196 -228
-196 -236
-196 -264
-196 -270
-196 -284
-196 -286
-196 -314
-196 -330
-196 -338
-196 -340
-196 -354
-196 -364
-196 -372
-196 -384
-196 -386
-196 -392
-198 -212
-198 -226
-198 -264
-198 -268
-198 -284
-198 -286
-198 -308
-198 -330
-198 -338
-198 -340
-198 -348
-198 -350
-198 -354
-198 -372
-198 -384
-198 -386
-198 -392
-198 -398
-202 -204
-202 -218
-202 -226
-202 -236
-202 -264
-202 -286
-202 -288
-202 -330
-202 -338
-202 -340
-202 -348
-202 -354
-202 -364
-202 -372
-202 -386
-202 -392
-202 -396
-202 -398
-204 -212
-204 -218
-204 -228
-204 -264
-204 -268
-204 -284
-204 -288
-204 -308
-204 -314
-204 -330
-204 -338
-204 -348
-204 -350
-204 -384
-204 -386
-204 -390
-204 -392
-204 -398
-212 -218
-212 -226
-212 -228
-212 -236
-212 -264
-212 -268
-212 -270
-212 -288
-212 -308
-212 -314
-212 -338
-212 -364
-212 -372
-212 -386
-212 -390
-212 -392
-212 -396
-212 -398
-218 -226
-218 -236
-218 -264
-218 -288
-218 -308
-218 -314
-218 -338
-218 -348
-218 -364
-218 -372
-218 -384
-218 -390
-218 -396
-218 -398
-226 -228
-226 -264
-226 -270
-226 -282
-226 -284
-226 -330
-226 -338
-226 -340
-226 -350
-226 -354
-226 -384
-226 -392
-226 -396
-226 -398
-228 -264
-228 -268
-228 -284
-228 -286
-228 -314
-228 -330
-228 -338
-228 -340
-228 -348
-228 -350
-228 -364
-228 -372
-228 -384
-228 -390
-228 -396
-228 -398
-236 -264
-236 -270
-236 -286
-236 -338
-236 -340
-236 -348
-236 -350
-236 -354
-236 -364
-236 -372
-236 -384
-236 -386
-236 -390
-236 -392
-264 -268
-264 -270
-264 -282
-264 -288
-264 -308
-264 -314
-264 -338
-264 -350
-264 -354
-264 -364
-264 -372
-264 -384
-264 -392
-264 -396
-264 -398
-268 -270
-268 -282
-268 -286
-268 -288
-268 -308
-268 -338
-268 -348
-268 -354
-268 -364
-268 -372
-268 -384
-268 -386
-268 -390
-268 -398
-270 -282
-270 -284
-270 -286
-270 -308
-270 -314
-270 -338
-270 -340
-270 -348
-270 -350
-270 -354
-270 -396
-282 -284
-282 -286
-282 -288
-282 -330
-282 -340
-282 -350
-282 -354
-282 -364
-282 -386
-282 -392
-282 -396
-282 -398
-284 -288
-284 -314
-284 -338
-284 -340
-284 -348
-284 -350
-284 -354
-284 -372
-284 -390
-284 -398
-286 -288
-286 -308
-286 -314
-286 -330
-286 -338
-286 -340
-286 -364
-286 -384
-286 -386
-286 -392
-286 -396
-286 -398
-288 -308
-288 -340
-288 -348
-288 -350
-288 -364
-288 -372
-288 -384
-288 -386
-288 -390
-288 -396
-308 -314
-308 -330
-308 -338
-308 -340
-308 -350
-308 -354
-308 -364
-308 -372
-308 -384
-308 -386
-308 -390
-308 -392
-308 -398
-314 -340
-314 -348
-314 -372
-314 -384
-314 -386
-314 -390
-314 -392
-314 -396
-330 -338
-330 -348
-330 -350
-330 -364
-330 -372
-330 -384
-330 -390
-330 -398
-338 -340
-338 -348
-338 -350
-338 -384
-338 -386
-338 -390
-338 -392
-338 -398
-340 -348
-340 -354
-340 -364
-340 -386
-340 -390
-340 -392
-340 -396
-348 -350
-348 -364
-348 -372
-348 -384
-348 -386
-348 -390
-348 -392
-350 -354
-350 -372
-350 -384
-350 -398
-354 -364
-354 -390
-364 -372
-364 -384
-364 -386
-364 -398
-372 -384
-372 -386
-372 -392
-372 -396
-384 -386
-384 -390
-384 -392
-384 -396
-386 -392
-390 -392
-390 -396
-390 -398
-392 -396
-392 -398
-396 -398

